
Gurobi 7.5.2 (linux64) logging started Sat Jul  7 16:12:58 2018

Changed value of parameter LogFile to result/ilp/simNo_1-n_100-m_40-s_7-minVAF_0.05-cov_10000-k_1-fn_0.15-fp_0.0001-na_0.15.ILP.gurobiSolverLog
   Prev: gurobi.log  Default: 
Changed value of parameter TimeLimit to 86400.0
   Prev: 1e+100  Min: 0.0  Max: 1e+100  Default: 1e+100
Optimize a model with 639293 rows, 10765 columns and 1940420 nonzeros
Variable types: 0 continuous, 10765 integer (10765 binary)
Coefficient statistics:
  Matrix range     [4e-05, 4e+00]
  Objective range  [2e+00, 1e+01]
  Bounds range     [1e+00, 1e+00]
  RHS range        [5e-02, 2e+00]
Found heuristic solution: objective -14962.02938
Presolve removed 138117 rows and 1109 columns (presolve time = 5s) ...
Presolve removed 139007 rows and 1109 columns (presolve time = 10s) ...
Presolve removed 139671 rows and 1109 columns (presolve time = 17s) ...
Presolve removed 206071 rows and 1773 columns (presolve time = 20s) ...
Presolve removed 206071 rows and 1773 columns
Presolve time: 23.95s
Presolved: 433222 rows, 8992 columns, 1302184 nonzeros
Variable types: 0 continuous, 8992 integer (8992 binary)
Presolved: 8992 rows, 442214 columns, 1311176 nonzeros

Presolve removed 8992 rows and 442214 columns

Root simplex log...

Iteration    Objective       Primal Inf.    Dual Inf.      Time
       0    1.3517646e+01   0.000000e+00   7.206300e+04     28s
   12956   -2.4530775e+02   0.000000e+00   2.392067e+05     30s
   33042   -3.7550120e+02   0.000000e+00   8.173662e+04     35s
   39689   -3.9027151e+02   0.000000e+00   0.000000e+00     39s
   39689   -3.9027151e+02   0.000000e+00   0.000000e+00     40s

Root relaxation: objective -3.902715e+02, 39689 iterations, 13.92 seconds
Total elapsed time = 40.59s
Total elapsed time = 97.75s
Total elapsed time = 143.50s
Total elapsed time = 176.93s

    Nodes    |    Current Node    |     Objective Bounds      |     Work
 Expl Unexpl |  Obj  Depth IntInf | Incumbent    BestBd   Gap | It/Node Time

     0     0 -390.27151    0  483 -14962.029 -390.27151  97.4%     -  184s
H    0     0                    -445.5735243 -390.27151  12.4%     -  188s
H    0     0                    -410.9065912 -390.27151  5.02%     -  191s
     0     0 -392.74772    0  486 -410.90659 -392.74772  4.42%     -  247s
     0     0 -392.74772    0  486 -410.90659 -392.74772  4.42%     -  258s
     0     0 -396.18595    0  486 -410.90659 -396.18595  3.58%     -  493s
     0     0 -396.58704    0  500 -410.90659 -396.58704  3.48%     -  539s
     0     0 -396.68783    0  486 -410.90659 -396.68783  3.46%     -  559s
     0     0 -396.69428    0  486 -410.90659 -396.69428  3.46%     -  594s
     0     0 -396.69428    0  463 -410.90659 -396.69428  3.46%     -  601s
     0     0 -396.90063    0  469 -410.90659 -396.90063  3.41%     -  618s
     0     0 -396.90063    0  470 -410.90659 -396.90063  3.41%     -  622s
     0     0 -398.65082    0  476 -410.90659 -398.65082  2.98%     -  798s
     0     0 -398.70104    0  483 -410.90659 -398.70104  2.97%     -  826s
     0     0 -398.70104    0  485 -410.90659 -398.70104  2.97%     -  830s
     0     0 -398.72360    0  503 -410.90659 -398.72360  2.96%     -  865s
     0     0 -398.72360    0  500 -410.90659 -398.72360  2.96%     -  872s
     0     0 -398.97578    0  500 -410.90659 -398.97578  2.90%     - 1082s
     0     0 -399.08694    0  497 -410.90659 -399.08694  2.88%     - 1113s
     0     0 -399.36208    0  503 -410.90659 -399.36208  2.81%     - 1157s
H    0     0                    -409.2557848 -399.36208  2.42%     - 1163s
     0     0 -399.39647    0  507 -409.25578 -399.39647  2.41%     - 1205s
     0     0 -399.39647    0  510 -409.25578 -399.39647  2.41%     - 1210s
     0     0 -400.46262    0  507 -409.25578 -400.46262  2.15%     - 2612s
     0     0 -400.69845    0  504 -409.25578 -400.69845  2.09%     - 2697s
     0     0 -400.69845    0  505 -409.25578 -400.69845  2.09%     - 2701s
     0     0 -401.03123    0  505 -409.25578 -401.03123  2.01%     - 3044s
     0     0 -401.03123    0  478 -409.25578 -401.03123  2.01%     - 3133s
     0     0 -401.03123    0  474 -409.25578 -401.03123  2.01%     - 3151s
     0     0 -401.03123    0  509 -409.25578 -401.03123  2.01%     - 3156s
     0     0 -401.20036    0  518 -409.25578 -401.20036  1.97%     - 3159s
     0     0 -401.21812    0  518 -409.25578 -401.21812  1.96%     - 3162s
     0     0 -401.21924    0  518 -409.25578 -401.21924  1.96%     - 3164s
     0     0 -401.86580    0  520 -409.25578 -401.86580  1.81%     - 3167s
     0     0 -402.24779    0  523 -409.25578 -402.24779  1.71%     - 3170s
     0     0 -402.31497    0  520 -409.25578 -402.31497  1.70%     - 3172s
     0     0 -402.33294    0  523 -409.25578 -402.33294  1.69%     - 3174s
     0     0 -402.33669    0  523 -409.25578 -402.33669  1.69%     - 3175s
     0     0 -402.34285    0  524 -409.25578 -402.34285  1.69%     - 3177s
     0     0 -402.93883    0  520 -409.25578 -402.93883  1.54%     - 3180s
     0     0 -402.93883    0  516 -409.25578 -402.93883  1.54%     - 3183s
     0     0 -402.93883    0  517 -409.25578 -402.93883  1.54%     - 3186s
     0     0 -403.05674    0  525 -409.25578 -403.05674  1.51%     - 3189s
     0     0 -403.26899    0  525 -409.25578 -403.26899  1.46%     - 3192s
     0     0 -403.27323    0  525 -409.25578 -403.27323  1.46%     - 3194s
     0     0 -403.27323    0  527 -409.25578 -403.27323  1.46%     - 3195s
     0     0 -404.03936    0  494 -409.25578 -404.03936  1.27%     - 3211s
     0     0 -404.03936    0  478 -409.25578 -404.03936  1.27%     - 3226s
     0     0 -404.03936    0  491 -409.25578 -404.03936  1.27%     - 3230s
     0     0 -404.03936    0  490 -409.25578 -404.03936  1.27%     - 3231s
     0     0 -404.03936    0  493 -409.25578 -404.03936  1.27%     - 3231s
     0     0 -404.03936    0  493 -409.25578 -404.03936  1.27%     - 3232s
     0     0 -404.60423    0  417 -409.25578 -404.60423  1.14%     - 3234s
     0     0 -404.60423    0  483 -409.25578 -404.60423  1.14%     - 3236s
     0     0 -404.60423    0  408 -409.25578 -404.60423  1.14%     - 3236s
     0     0 -404.67520    0  437 -409.25578 -404.67520  1.12%     - 3237s
     0     0 -404.68231    0  431 -409.25578 -404.68231  1.12%     - 3237s
     0     0 -405.03704    0  441 -409.25578 -405.03704  1.03%     - 3237s
     0     0 -405.03704    0  441 -409.25578 -405.03704  1.03%     - 3237s
     0     0 -405.06030    0  445 -409.25578 -405.06030  1.03%     - 3237s
     0     0 -405.06134    0  433 -409.25578 -405.06134  1.02%     - 3237s
     0     0 -405.06154    0  467 -409.25578 -405.06154  1.02%     - 3237s
     0     0 -405.06248    0  478 -409.25578 -405.06248  1.02%     - 3237s
     0     0 -405.17467    0  440 -409.25578 -405.17467  1.00%     - 3238s
     0     0 -405.17467    0  453 -409.25578 -405.17467  1.00%     - 3238s
     0     0 -405.66192    0  434 -409.25578 -405.66192  0.88%     - 3238s
     0     0 -405.69324    0  425 -409.25578 -405.69324  0.87%     - 3238s
     0     0 -405.69324    0  430 -409.25578 -405.69324  0.87%     - 3238s
     0     0 -405.95417    0  360 -409.25578 -405.95417  0.81%     - 3238s
     0     0 -405.95417    0  381 -409.25578 -405.95417  0.81%     - 3238s
     0     0 -405.95417    0  323 -409.25578 -405.95417  0.81%     - 3239s
     0     0 -405.95417    0  366 -409.25578 -405.95417  0.81%     - 3239s
     0     0 -406.04588    0  374 -409.25578 -406.04588  0.78%     - 3239s
     0     0 -406.05422    0  371 -409.25578 -406.05422  0.78%     - 3239s
     0     0 -406.11139    0  371 -409.25578 -406.11139  0.77%     - 3239s
     0     0 -406.11925    0  370 -409.25578 -406.11925  0.77%     - 3239s
     0     0 -406.11925    0  371 -409.25578 -406.11925  0.77%     - 3239s
     0     0 -406.25047    0  363 -409.25578 -406.25047  0.73%     - 3239s
     0     0 -406.28433    0  357 -409.25578 -406.28433  0.73%     - 3239s
     0     0 -406.28433    0  357 -409.25578 -406.28433  0.73%     - 3240s
     0     0 -406.28433    0  261 -409.25578 -406.28433  0.73%     - 3240s
     0     0 -406.36687    0  255 -409.25578 -406.36687  0.71%     - 3240s
     0     0 -406.37303    0  259 -409.25578 -406.37303  0.70%     - 3240s
     0     0 -406.37438    0  257 -409.25578 -406.37438  0.70%     - 3240s
     0     0 -406.37438    0  265 -409.25578 -406.37438  0.70%     - 3240s
     0     0 -406.38482    0  266 -409.25578 -406.38482  0.70%     - 3240s
     0     0 -406.38482    0  266 -409.25578 -406.38482  0.70%     - 3240s
     0     0 -406.40957    0  269 -409.25578 -406.40957  0.70%     - 3240s
     0     0 -406.44244    0  271 -409.25578 -406.44244  0.69%     - 3240s
     0     0 -406.47387    0  270 -409.25578 -406.47387  0.68%     - 3240s
     0     0 -406.47387    0  270 -409.25578 -406.47387  0.68%     - 3241s
     0     0 -406.52561    0  266 -409.25578 -406.52561  0.67%     - 3241s
     0     0 -406.53195    0  268 -409.25578 -406.53195  0.67%     - 3241s
     0     0 -406.54375    0  270 -409.25578 -406.54375  0.66%     - 3241s
     0     0 -406.54743    0  269 -409.25578 -406.54743  0.66%     - 3241s
     0     0 -406.54743    0  267 -409.25578 -406.54743  0.66%     - 3241s
     0     0 -406.54760    0  267 -409.25578 -406.54760  0.66%     - 3241s
     0     0 -406.54760    0  267 -409.25578 -406.54760  0.66%     - 3241s
     0     0 -406.54760    0  268 -409.25578 -406.54760  0.66%     - 3241s
     0     0 -406.54760    0  267 -409.25578 -406.54760  0.66%     - 3242s
     0     2 -406.66166    0  267 -409.25578 -406.66166  0.63%     - 3243s

Cutting planes:
  Gomory: 3
  MIR: 2
  Zero half: 67

Explored 20 nodes (201299 simplex iterations) in 3243.93 seconds
Thread count was 1 (of 80 available processors)

Solution count 6: -409.256 -409.256 -409.256 ... -14962

Optimal solution found (tolerance 1.00e-04)
Best objective -4.092557848127e+02, best bound -4.092557848127e+02, gap 0.0000%
